TrabalhoPrático2/104529.txt
12
23
1 7 0 1000
2 8 0 70
3 9 0 60 
4 10 0 30
5 11 0 1000
6 12 0 120
7 2 0 1000
7 3 0 1000
8 1 0 1000
8 3 0 1000
8 4 0 1000
9 1 0 1000
9 2 0 1000
9 5 0 1000
10 2 0 1000
10 5 0 1000
10 6 0 1000
11 3 0 1000
11 4 0 1000
11 6 0 1000
12 4 0 1000
12 5 0 1000
7 5 -1 1000
0
0
0
0
0
0
0
0
0
0
0
0